NAME : instances/clustered-diverse-tsp/instance-9.tsp
COMMENT : No Comment
TYPE : TSP
DIMENSION: 50
EDGE_WEIGHT_TYPE : EUC_2D
NODE_COORD_SECTION
1 1235 1202 
2 1567 1064 
3 638 1359 
4 742 328 
5 559 1367 
6 1621 827 
7 231 845 
8 209 724 
9 1359 1290 
10 715 410 
11 183 981 
12 1364 1254 
13 708 419 
14 678 397 
15 1575 1087 
16 608 1527 
17 632 434 
18 1384 1121 
19 1634 757 
20 623 394 
21 355 934 
22 563 1505 
23 280 736 
24 722 1419 
25 117 1485 
26 635 349 
27 1316 1191 
28 243 1532 
29 1589 757 
30 1564 811 
31 618 266 
32 334 1017 
33 688 387 
34 1297 1236 
35 116 832 
36 1469 1302 
37 64 1510 
38 250 1029 
39 239 1640 
40 1246 1004 
41 613 1509 
42 563 304 
43 1230 1170 
44 1643 739 
45 634 329 
46 175 764 
47 235 832 
48 1707 687 
49 1664 675 
50 1624 1023 
EOF
